WARNING: for repeatability, setting FPU to use double precision
============================[ Problem Statistics ]=============================
|                                                                             |
|  Number of variables:            50                                         |
|  Number of clauses:             218                                         |
|  Parse time:                   0.00 s                                       |
|                                                                             |
============================[ Search Statistics ]==============================
| Conflicts |          ORIGINAL         |          LEARNT          | Progress |
|           |    Vars  Clauses Literals |    Limit  Clauses Lit/Cl |          |
===============================================================================
===============================================================================
restarts              : 1
conflicts             : 42             (29146 /sec)
decisions             : 48             (0.00 % random) (33310 /sec)
propagations          : 564            (391395 /sec)
conflict literals     : 147            (19.67 % deleted)
Memory used           : 20.00 MB
CPU time              : 0.001441 s

UNSATISFIABLE
